************************************************************************
file with basedata            : mm12_.bas
initial value random generator: 1911988718
************************************************************************
projects                      :  1
jobs (incl. supersource/sink ):  12
horizon                       :  78
RESOURCES
  - renewable                 :  2   R
  - nonrenewable              :  2   N
  - doubly constrained        :  0   D
************************************************************************
PROJECT INFORMATION:
pronr.  #jobs rel.date duedate tardcost  MPM-Time
    1     10      0       19        2       19
************************************************************************
PRECEDENCE RELATIONS:
jobnr.    #modes  #successors   successors
   1        1          3           2   3   4
   2        3          1           6
   3        3          3           9  10  11
   4        3          1           5
   5        3          2           7   9
   6        3          3           7   9  11
   7        3          1           8
   8        3          1          10
   9        3          1          12
  10        3          1          12
  11        3          1          12
  12        1          0        
************************************************************************
REQUESTS/DURATIONS:
jobnr. mode duration  R 1  R 2  N 1  N 2
------------------------------------------------------------------------
  1      1     0       0    0    0    0
  2      1     2       6    0    0    5
         2     8       5    0    0    5
         3     9       3    0    5    0
  3      1     3       0    7    0    9
         2     4      10    0    0    8
         3     9       2    0    0    5
  4      1     2       6    0    0    6
         2     5       5    0    9    0
         3     6       4    0    2    0
  5      1     1       3    0    0    4
         2     1       0    5    9    0
         3     9       0    3    9    0
  6      1     2       0    1   10    0
         2     8       0    1    0    7
         3    10       0    1    0    4
  7      1     5       0    8    6    0
         2     8       0    8    0    9
         3    10       0    8    5    0
  8      1     8       9    0    0    4
         2     8       0    6    4    0
         3     9       6    0    0    5
  9      1     3       0    8    9    0
         2     4       0    5    8    0
         3     4       0    3    9    0
 10      1     2       0    2    4    0
         2     2       6    0    0    2
         3     7       5    0    6    0
 11      1     2       0    4    5    0
         2     2       0    4    0    3
         3     5       0    3    0    3
 12      1     0       0    0    0    0
************************************************************************
RESOURCEAVAILABILITIES:
  R 1  R 2  N 1  N 2
   13   14   63   50
************************************************************************
MAXIMAL LAGS:
from  to  type  delay
    1   12   ES      0
    1    2   ES      0
    2   12   ES      0
    1    3   ES      0
    3   12   ES      0
    1    4   ES      0
    4   12   ES      0
    1    5   ES      0
    5   12   ES      0
    1    6   ES      0
    6   12   ES      0
    1    7   ES      0
    7   12   ES      0
    1    8   ES      0
    8   12   ES      0
    1    9   ES      0
    9   12   ES      0
    1   10   ES      0
   10   12   ES      0
    1   11   ES      0
   11   12   ES      0
    1   12   ES      0
    2    6   SS     -9
    2    6   SE     12
    2    6   ES      8
    2    6   EE     10
    3    9   SS     -9
    3    9   SE      2
    3    9   ES     -7
    3    9   EE     10
    3   10   SS     -3
    3   10   SE    -12
    3   10   ES    -11
    3   10   EE     -2
    3   11   SS    -11
    3   11   SE     -3
    3   11   ES     -1
    3   11   EE     -1
    4    5   SS      1
    4    5   SE     -8
    4    5   ES     -5
    4    5   EE      4
    5    7   SS      1
    5    7   SE      6
    5    7   ES      9
    5    7   EE     -7
    5    9   SS     -7
    5    9   SE     -7
    5    9   ES    -10
    5    9   EE      7
    6    7   SS      0
    6    7   SE      7
    6    7   ES      9
    6    7   EE     -5
    6    9   SS      3
    6    9   SE      6
    6    9   ES     -8
    6    9   EE     -5
    6   11   SS      2
    6   11   SE      8
    6   11   ES     -4
    6   11   EE      2
    7    8   SS     -4
    7    8   SE      9
    7    8   ES    -12
    7    8   EE      2
    8   10   SS     -3
    8   10   SE      9
    8   10   ES      5
    8   10   EE     -7
************************************************************************
